ITEM = 1..35;
capacity1 = 303;
capacity2 = 303;
capacity3 = 303;
profits = [94, 42, 92, 75, 21, 41, 22, 24, 42, 63, 35, 53, 21, 20, 43, 38, 58, 100, 38, 71, 63, 46, 72, 27, 40, 29, 28, 25, 50, 39, 41, 22, 20, 20, 66];
weights = [98, 32, 95, 65, 11, 53, 18, 16, 60, 99, 58, 96, 11, 28, 34, 35, 51, 100, 33, 68, 55, 57, 64, 31, 67, 37, 62, 93, 45, 72, 54, 17, 17, 25, 60];
